files/upTests/tupley32-s3/0001.eprime
language ESSENCE' 1.0

find pain_tuple1_tuple1: matrix indexed by [int(1)] of int(4, 5)
find pain_tuple1_tuple2: matrix indexed by [int(1)] of int(10)
find pain_tuple2_tuple1: matrix indexed by [int(1)] of int(7, 8)
find pain_tuple2_tuple2: matrix indexed by [int(1)] of int(2, 3)
such that
    pain_tuple1_tuple1[1] = 5,
    pain_tuple1_tuple2[1] = 10,
    pain_tuple2_tuple1[1] = 7,
    pain_tuple2_tuple2[1] = 3
