files/upTests/tupley32-s3/0001.eprime.solution
language ESSENCE' 1.0
$ minion Nodes: 1
$ minion TotalTime: 0.000959
$ Savile Row TotalTime: 0.283
letting pain_tuple1_tuple1 be [5]
letting pain_tuple1_tuple2 be [10]
letting pain_tuple2_tuple1 be [7]
letting pain_tuple2_tuple2 be [3]
